c 209_4_checker_6cl.cnf
c
c field = 209
c formula set type = 4_checker_6cl
c
p cnf 6 6
408 
410 
412 
414 
-406 
-418 
409 
411 
413 
415 
-407 
-419 
296 
326 
356 
386 
-266 
-446 
297 
327 
357 
387 
-267 
-447 
288 
320 
352 
384 
-256 
-448 
289 
321 
353 
385 
-257 
-449 
